scip/project/solution/binkar10_1.sol
solution status: optimal solution found
objective value:                     6742.20002399839
C2130                                               1 	(obj:25.440001)
C2132                                               1 	(obj:25.440001)
C2135                                               1 	(obj:25.440001)
C2137                                               1 	(obj:25.440001)
C2140                                               1 	(obj:10.2)
C2142                                               1 	(obj:10.2)
C2144                                               1 	(obj:10.2)
C2146                                               1 	(obj:10.2)
C2148                                               1 	(obj:10.2)
C2149                                               1 	(obj:22.41)
C2151                                               1 	(obj:22.41)
C2153                                               1 	(obj:22.41)
C2155                                               1 	(obj:22.41)
C2157                                               1 	(obj:22.41)
C2160                                               1 	(obj:23.33)
C2163                                               1 	(obj:23.33)
C2166                                               1 	(obj:23.33)
C2182                                               1 	(obj:14.03)
C2188                                               1 	(obj:14.03)
C2190                                               1 	(obj:10.18)
C2193                                               1 	(obj:10.18)
C2195                                               1 	(obj:10.18)
C2197                                               1 	(obj:10.18)
C2209                                               1 	(obj:14.09)
C2211                                               1 	(obj:14.09)
C2212                                               1 	(obj:14.09)
C2213                                               1 	(obj:14.09)
C2214                                               1 	(obj:14.09)
C2216                                               1 	(obj:14.09)
C2217                                               1 	(obj:14.09)
C2218                                               1 	(obj:14.09)
C2219                                               1 	(obj:20.07)
C2221                                               1 	(obj:20.07)
C2224                                               1 	(obj:20.07)
C2226                                               1 	(obj:20.07)
C2228                                               1 	(obj:20.07)
C2240                                               1 	(obj:10.21)
C2241                                               1 	(obj:10.21)
C2243                                               1 	(obj:10.21)
C2247                                               1 	(obj:10.21)
C2248                                               1 	(obj:10.21)
C2254                                               1 	(obj:25.24)
C2261                                               1 	(obj:14.57)
C2264                                               1 	(obj:14.57)
C2266                                               1 	(obj:14.57)
C2268                                               1 	(obj:14.57)
C2289                                               1 	(obj:20.190001)
C2292                                               1 	(obj:20.190001)
C2295                                               1 	(obj:20.190001)
C0229                                               1 	(obj:54.310001)
C0235                                               1 	(obj:54.310001)
C0236                                               1 	(obj:80.139999)
C0247                                               1 	(obj:56.32)
C0250                                               1 	(obj:56.32)
C0252                                               1 	(obj:56.32)
C0254                                               1 	(obj:56.32)
C0257                                               1 	(obj:70.360001)
C0260                                               1 	(obj:70.360001)
C0262                                               1 	(obj:70.360001)
C0327                                               1 	(obj:55.43)
C0329                                               1 	(obj:55.43)
C0330                                               1 	(obj:55.43)
C0331                                               1 	(obj:55.43)
C0332                                               1 	(obj:55.43)
C0334                                               1 	(obj:55.43)
C0335                                               1 	(obj:55.43)
C0336                                               1 	(obj:55.43)
C0337                                               1 	(obj:87.199997)
C0342                                               1 	(obj:87.199997)
C0382                                               1 	(obj:50.43)
C0384                                               1 	(obj:50.43)
C0387                                               1 	(obj:50.43)
C0389                                               1 	(obj:50.43)
C0391                                               1 	(obj:50.43)
C0392                                               1 	(obj:66.260002)
C0394                                               1 	(obj:66.260002)
C0397                                               1 	(obj:66.260002)
C0399                                               1 	(obj:66.260002)
C0403                                               1 	(obj:82.089996)
C0452                                               1 	(obj:75.650002)
C0462                                               1 	(obj:57.220001)
C0463                                               1 	(obj:57.220001)
C0465                                               1 	(obj:57.220001)
C0469                                               1 	(obj:57.220001)
C0470                                               1 	(obj:57.220001)
C0473                                               1 	(obj:84.919998)
C0520                                               1 	(obj:55.139999)
C0530                                               1 	(obj:60.759998)
C0539                                               1 	(obj:66.379997)
C0566                                               1 	(obj:56.009998)
C0569                                               1 	(obj:56.009998)
C0571                                               1 	(obj:56.009998)
C0573                                               1 	(obj:56.009998)
C0574                                               1 	(obj:67.150002)
C0577                                               1 	(obj:67.150002)
C0580                                               1 	(obj:67.150002)
C0582                                               1 	(obj:67.150002)
C0584                                               1 	(obj:78.290001)
C0587                                               1 	(obj:78.290001)
C0692                                               1 	(obj:56.77)
C0695                                               1 	(obj:56.77)
C0698                                               1 	(obj:56.77)
C0702                                               1 	(obj:65.660004)
C0705                                               1 	(obj:65.660004)
C0708                                               1 	(obj:65.660004)
C0711                                               1 	(obj:74.550003)
C0714                                               1 	(obj:74.550003)
C0717                                               1 	(obj:74.550003)
C0725                                               1 	(obj:83.440002)
C0748                                               1 	(obj:-10.28)
C0753                                               1 	(obj:-10.28)
C0755                                               1 	(obj:-10.28)
C0760                                               1 	(obj:-6.85)
C0765                                               1 	(obj:-3.42)
C0783                                               1 	(obj:-7.65)
C0784                                               1 	(obj:-3.82)
C0786                                               1 	(obj:-3.82)
C0788                                               1 	(obj:-3.82)
C0790                                               1 	(obj:-3.82)
C0792                                               1 	(obj:-3.82)
C0804                                               1 	(obj:-13.65)
C0806                                               1 	(obj:-13.65)
C0808                                               1 	(obj:-13.65)
C0810                                               1 	(obj:-13.65)
C0812                                               1 	(obj:-13.65)
C0839                                               1 	(obj:-6.05)
C0873                                               1 	(obj:-16.48)
C0876                                               1 	(obj:-16.48)
C0879                                               1 	(obj:-16.48)
C0903                                               1 	(obj:-6.180001)
C0970                                               1 	(obj:-12.46)
C0976                                               1 	(obj:-12.46)
C0977                                               1 	(obj:-6.23)
C0995                                               1 	(obj:-7.48)
C0998                                               1 	(obj:-4.99)
C1001                                               1 	(obj:-4.99)
C1003                                               1 	(obj:-4.99)
C1070                                               1 	(obj:-11.06)
C1071                                               1 	(obj:-11.06)
C1072                                               1 	(obj:-11.06)
C1075                                               1 	(obj:-11.06)
C1076                                               1 	(obj:-11.06)
C1077                                               1 	(obj:-11.06)
C1078                                               1 	(obj:-9.68)
C1083                                               1 	(obj:-9.68)
C1102                                               1 	(obj:-5.54)
C1133                                               1 	(obj:-14.35)
C1134                                               1 	(obj:-12.3)
C1139                                               1 	(obj:-12.3)
C1141                                               1 	(obj:-12.3)
C1145                                               1 	(obj:-10.25)
C1158                                               1 	(obj:-6.150001)
C1196                                               1 	(obj:-4.299999)
C1206                                               1 	(obj:-7.55)
C1209                                               1 	(obj:-7.55)
C1213                                               1 	(obj:-7.55)
C1214                                               1 	(obj:-7.55)
C1217                                               1 	(obj:-6.71)
C1283                                               1 	(obj:-14.35)
C1318                                               1 	(obj:-11.5)
C1325                                               1 	(obj:-8.62)
C1327                                               1 	(obj:-8.62)
C1329                                               1 	(obj:-5.74)
C1332                                               1 	(obj:-5.74)
C1395                                               1 	(obj:-4.14)
C1457                                               1 	(obj:-11.940001)
C1460                                               1 	(obj:-11.940001)
C1471                                               1 	(obj:-8.95)
C0002                                               1 	(obj:57.360001)
C0004                                               1 	(obj:57.360001)
C0007                                               1 	(obj:57.360001)
C0009                                               1 	(obj:57.360001)
C0012                                               1 	(obj:77.380005)
C0014                                               1 	(obj:77.380005)
C0017                                               1 	(obj:77.380005)
C0019                                               1 	(obj:77.380005)
C0023                                               1 	(obj:97.400002)
C0028                                               1 	(obj:117.419998)
C0037                                               1 	(obj:52.639999)
C0039                                               1 	(obj:52.639999)
C0041                                               1 	(obj:52.639999)
C0043                                               1 	(obj:52.639999)
C0045                                               1 	(obj:52.639999)
C0046                                               1 	(obj:59.68)
C0048                                               1 	(obj:59.68)
C0050                                               1 	(obj:59.68)
C0052                                               1 	(obj:59.68)
C0054                                               1 	(obj:59.68)
C0056                                               1 	(obj:52.369999)
C0058                                               1 	(obj:52.369999)
C0060                                               1 	(obj:52.369999)
C0062                                               1 	(obj:52.369999)
C0064                                               1 	(obj:52.369999)
C0066                                               1 	(obj:82.229996)
C0068                                               1 	(obj:82.229996)
C0070                                               1 	(obj:82.229996)
C0072                                               1 	(obj:82.229996)
C0074                                               1 	(obj:82.229996)
C0115                                               1 	(obj:53.939999)
C0118                                               1 	(obj:53.939999)
C0121                                               1 	(obj:53.939999)
C0125                                               1 	(obj:63.369999)
C0128                                               1 	(obj:63.369999)
C0131                                               1 	(obj:63.369999)
C0134                                               1 	(obj:72.800003)
C0137                                               1 	(obj:72.800003)
C0140                                               1 	(obj:72.800003)
C0163                                               1 	(obj:119.949997)
